50
750
509
508
507
507
502
494
483
480
478
473
467
460
446
439
435
426
413
394
390
348
346
343
335
330
322
300
299
297
282
276
266
263
262
260
251
235
223
221
208
202
200
169
161
157
117
102
99
88
80
75
